NAME: random-96-13031
TYPE: TSP
COMMENT: size=96 seed=13031
DIMENSION: 194
EDGE_WEIGHT_TYPE: EUC_2D
NODE_COORD_SECTION
+0 17 761
-0 17 761
+1 356 541
-1 253 856
+2 16 166
-2 581 219
+3 536 152
-3 285 999
+4 122 899
-4 628 435
+5 713 236
-5 901 639
+6 538 621
-6 963 531
+7 556 746
-7 293 602
+8 132 431
-8 733 404
+9 128 787
-9 591 731
+10 284 291
-10 31 464
+11 652 386
-11 258 205
+12 223 225
-12 795 168
+13 542 710
-13 101 847
+14 511 117
-14 421 510
+15 546 268
-15 650 165
+16 999 704
-16 491 894
+17 618 156
-17 210 176
+18 15 574
-18 574 590
+19 86 772
-19 994 447
+20 376 363
-20 217 294
+21 869 704
-21 584 80
+22 100 272
-22 242 636
+23 277 206
-23 118 665
+24 453 92
-24 255 253
+25 884 48
-25 927 687
+26 306 595
-26 455 97
+27 406 759
-27 376 264
+28 873 696
-28 811 354
+29 995 885
-29 497 519
+30 365 301
-30 181 742
+31 795 905
-31 516 908
+32 207 183
-32 176 403
+33 69 346
-33 308 807
+34 281 538
-34 604 285
+35 507 258
-35 69 57
+36 85 568
-36 184 482
+37 990 31
-37 370 10
+38 571 748
-38 554 513
+39 762 118
-39 355 698
+40 650 110
-40 972 614
+41 635 311
-41 441 214
+42 484 692
-42 283 834
+43 206 767
-43 42 570
+44 891 209
-44 678 706
+45 497 956
-45 405 129
+46 980 747
-46 191 367
+47 740 621
-47 237 337
+48 304 874
-48 72 673
+49 443 826
-49 621 50
+50 798 95
-50 997 184
+51 928 75
-51 780 182
+52 230 742
-52 938 923
+53 677 187
-53 953 266
+54 250 405
-54 336 919
+55 770 781
-55 906 753
+56 265 572
-56 194 372
+57 36 563
-57 931 101
+58 978 493
-58 809 335
+59 841 101
-59 225 57
+60 638 795
-60 981 69
+61 427 430
-61 663 701
+62 614 204
-62 635 661
+63 229 288
-63 308 698
+64 522 65
-64 383 781
+65 650 719
-65 175 525
+66 914 572
-66 132 106
+67 615 193
-67 498 766
+68 440 260
-68 191 960
+69 507 366
-69 315 278
+70 287 663
-70 321 343
+71 164 204
-71 822 379
+72 61 981
-72 761 414
+73 312 876
-73 389 189
+74 190 645
-74 812 124
+75 59 227
-75 102 8
+76 855 399
-76 644 844
+77 503 928
-77 566 938
+78 221 542
-78 653 726
+79 59 459
-79 590 811
+80 130 215
-80 160 622
+81 659 733
-81 920 146
+82 64 970
-82 575 935
+83 900 943
-83 51 909
+84 441 467
-84 119 81
+85 42 266
-85 646 308
+86 693 161
-86 59 309
+87 155 214
-87 17 688
+88 691 36
-88 789 485
+89 463 575
-89 426 101
+90 618 644
-90 696 367
+91 937 857
-91 479 612
+92 140 334
-92 842 307
+93 579 246
-93 580 65
+94 305 47
-94 461 727
+95 923 638
-95 433 39
+96 640 576
-96 907 766
PRECEDENCE_SECTION
+0 -0
+1 -1
+2 -2
+3 -3
+4 -4
+5 -5
+6 -6
+7 -7
+8 -8
+9 -9
+10 -10
+11 -11
+12 -12
+13 -13
+14 -14
+15 -15
+16 -16
+17 -17
+18 -18
+19 -19
+20 -20
+21 -21
+22 -22
+23 -23
+24 -24
+25 -25
+26 -26
+27 -27
+28 -28
+29 -29
+30 -30
+31 -31
+32 -32
+33 -33
+34 -34
+35 -35
+36 -36
+37 -37
+38 -38
+39 -39
+40 -40
+41 -41
+42 -42
+43 -43
+44 -44
+45 -45
+46 -46
+47 -47
+48 -48
+49 -49
+50 -50
+51 -51
+52 -52
+53 -53
+54 -54
+55 -55
+56 -56
+57 -57
+58 -58
+59 -59
+60 -60
+61 -61
+62 -62
+63 -63
+64 -64
+65 -65
+66 -66
+67 -67
+68 -68
+69 -69
+70 -70
+71 -71
+72 -72
+73 -73
+74 -74
+75 -75
+76 -76
+77 -77
+78 -78
+79 -79
+80 -80
+81 -81
+82 -82
+83 -83
+84 -84
+85 -85
+86 -86
+87 -87
+88 -88
+89 -89
+90 -90
+91 -91
+92 -92
+93 -93
+94 -94
+95 -95
+96 -96
EOF
